results/real/sos1/jan_18_175.out
Version identifier: 22.1.1.0 | 2022-11-28 | 9160aff4d
CPXPARAM_Threads                                 1
CPXPARAM_MIP_Strategy_VariableSelect             3
CPXPARAM_TimeLimit                               599.99997742799997
1 of 1 MIP starts provided solutions.
MIP start 'm1' defined initial solution with objective 78.0000.
Tried aggregator 1 time.
MIP Presolve eliminated 190 rows and 525 columns.
MIP Presolve modified 43 coefficients.
Reduced MIP has 873 rows, 1750 columns, and 27754 nonzeros.
Reduced MIP has 1750 binaries, 0 generals, 0 SOSs, and 0 indicators.
Presolve time = 0.05 sec. (44.54 ticks)
Probing time = 0.01 sec. (8.33 ticks)
Tried aggregator 1 time.
Detecting symmetries...
MIP Presolve modified 8 coefficients.
Reduced MIP has 873 rows, 1750 columns, and 27938 nonzeros.
Reduced MIP has 1750 binaries, 0 generals, 0 SOSs, and 0 indicators.
Presolve time = 0.04 sec. (36.59 ticks)
Probing time = 0.01 sec. (8.35 ticks)
Clique table members: 519.
MIP emphasis: balance optimality and feasibility.
MIP search method: dynamic search.
Parallel mode: none, using 1 thread.
Root relaxation solution time = 0.01 sec. (12.36 ticks)

        Nodes                                         Cuts/
   Node  Left     Objective  IInf  Best Integer    Best Bound    ItCnt     Gap

*     0+    0                           78.0000    15400.0000              --- 
*     0     0      integral     0      175.0000      175.0000      306    0.00%
Elapsed time = 0.14 sec. (124.62 ticks, tree = 0.00 MB, solutions = 2)

Root node processing (before b&c):
  Real time             =    0.14 sec. (124.71 ticks)
Sequential b&c:
  Real time             =    0.00 sec. (0.00 ticks)
                          ------------
Total (root+branch&cut) =    0.14 sec. (124.71 ticks)
Primal:	175
Dual:	175
Status:	Optimal
Time:	0.14
Sequence:
	0
	9
	9
	5
	5
	0
	9
	9
	9
	9
	0
	9
	1
	0
	9
	9
	0
	9
	9
	9
	0
	5
	11
	9
	0
	1
	1
	9
	0
	5
	9
	4
	8
	9
	9
	9
	9
	8
	9
	9
	4
	11
	0
	9
	9
	0
	1
	9
	4
	4
	0
	4
	4
	0
	4
	1
	9
	9
	0
	1
	3
	9
	0
	1
	4
	4
	0
	9
	9
	0
	9
	1
	0
	1
	9
	0
	9
	1
	0
	4
	5
	0
	9
	1
	0
	3
	9
	0
	9
	9
	0
	5
	5
	9
	9
	0
	9
	5
	5
	9
	5
	0
	9
	1
	0
	9
	5
	0
	4
	5
	0
	9
	1
	1
	1
	9
	0
	9
	9
	0
	5
	4
	9
	0
	9
	9
	9
	9
	0
	4
	4
	0
	4
	4
	0
	4
	4
	0
	9
	9
	0
	9
	9
	0
	9
	4
	0
	9
	9
	0
	9
	3
	9
	9
	9
	9
	9
	8
	3
	9
	9
	9
	4
	4
	0
	4
	4
	10
	10
	4
	4
	9
	5
	5
	0
